NAME: random-36-15134
TYPE: TSP
COMMENT: size=36 seed=15134
DIMENSION: 74
EDGE_WEIGHT_TYPE: EUC_2D
NODE_COORD_SECTION
+0 138 836
-0 138 836
+1 506 937
-1 879 21
+2 522 191
-2 419 690
+3 903 247
-3 835 50
+4 239 634
-4 666 891
+5 856 375
-5 295 631
+6 205 844
-6 289 540
+7 479 573
-7 926 539
+8 371 232
-8 607 173
+9 808 757
-9 880 751
+10 92 805
-10 70 577
+11 570 130
-11 879 511
+12 827 50
-12 934 339
+13 966 976
-13 773 867
+14 402 769
-14 947 350
+15 671 399
-15 555 500
+16 977 977
-16 449 341
+17 631 970
-17 613 443
+18 219 379
-18 911 960
+19 162 45
-19 922 214
+20 794 237
-20 6 41
+21 698 161
-21 196 370
+22 559 723
-22 929 637
+23 806 939
-23 353 303
+24 252 613
-24 167 254
+25 377 791
-25 852 346
+26 436 775
-26 197 698
+27 460 815
-27 280 326
+28 559 890
-28 58 211
+29 229 773
-29 760 677
+30 921 353
-30 481 29
+31 248 638
-31 624 410
+32 965 73
-32 547 314
+33 63 951
-33 592 65
+34 869 304
-34 672 722
+35 350 381
-35 740 64
+36 537 518
-36 298 783
PRECEDENCE_SECTION
+0 -0
+1 -1
+2 -2
+3 -3
+4 -4
+5 -5
+6 -6
+7 -7
+8 -8
+9 -9
+10 -10
+11 -11
+12 -12
+13 -13
+14 -14
+15 -15
+16 -16
+17 -17
+18 -18
+19 -19
+20 -20
+21 -21
+22 -22
+23 -23
+24 -24
+25 -25
+26 -26
+27 -27
+28 -28
+29 -29
+30 -30
+31 -31
+32 -32
+33 -33
+34 -34
+35 -35
+36 -36
EOF
